instances/shortest_path/discrete_knapsack_uncertainty/nohadani_8_4.lp
\ Model nohadani_8_4
\ LP format - for model browsing. Use MPS format to capture full model detail.
\ Signature: 0x229cff0c87735314
Minimize
  29.01723625709382 y[0,2] + 45.34313619501854 y[0,3]
   + 43.46262762420146 y[0,4] + 59.77457653551382 y[0,5]
   + 23.3452350598575 y[0,6] + 48.30113870293329 y[1,2]
   + 43.96589587396122 y[1,3] + 58.18934610390462 y[1,4]
   + 15.29705854077836 y[1,5] + 46.09772228646444 y[1,7]
   + 29.01723625709382 y[2,0] + 48.30113870293329 y[2,1]
   + 35.0142828000232 y[2,3] + 42.72001872658765 y[2,4]
   + 33.83784863137726 y[2,5] + 33.30165161069343 y[2,6]
   + 45.34313619501854 y[3,0] + 43.96589587396122 y[3,1]
   + 35.0142828000232 y[3,2] + 14.31782106327635 y[3,4]
   + 31.38470965295043 y[3,5] + 62.64982043070834 y[3,6]
   + 37.01351104664349 y[3,7] + 43.46262762420146 y[4,0]
   + 58.18934610390462 y[4,1] + 42.72001872658765 y[4,2]
   + 14.31782106327635 y[4,3] + 45.65084884205331 y[4,5]
   + 64.32728814430156 y[4,6] + 42.72001872658765 y[4,7]
   + 59.77457653551382 y[5,0] + 15.29705854077836 y[5,1]
   + 33.83784863137726 y[5,2] + 31.38470965295043 y[5,3]
   + 45.65084884205331 y[5,4] + 67.00746227100382 y[5,6]
   + 45.17742799230607 y[5,7] + 23.3452350598575 y[6,0]
   + 33.30165161069343 y[6,2] + 62.64982043070834 y[6,3]
   + 64.32728814430156 y[6,4] + 67.00746227100382 y[6,5]
   + 46.09772228646444 y[7,1] + 37.01351104664349 y[7,3]
   + 42.72001872658765 y[7,4] + 45.17742799230607 y[7,5] + x[0,2] + x[0,3]
   + x[0,4] + x[0,5] + x[0,6] + x[1,2] + x[1,3] + x[1,4] + x[1,5] + x[1,7]
   + x[2,0] + x[2,1] + x[2,3] + x[2,4] + x[2,5] + x[2,6] + x[3,0] + x[3,1]
   + x[3,2] + x[3,4] + x[3,5] + x[3,6] + x[3,7] + x[4,0] + x[4,1] + x[4,2]
   + x[4,3] + x[4,5] + x[4,6] + x[4,7] + x[5,0] + x[5,1] + x[5,2] + x[5,3]
   + x[5,4] + x[5,6] + x[5,7] + x[6,0] + x[6,2] + x[6,3] + x[6,4] + x[6,5]
   + x[7,1] + x[7,3] + x[7,4] + x[7,5] + 2.901723625709382 r[0,2]
   + 4.534313619501854 r[0,3] + 4.346262762420146 r[0,4]
   + 5.977457653551383 r[0,5] + 2.334523505985751 r[0,6]
   + 4.830113870293329 r[1,2] + 4.396589587396122 r[1,3]
   + 5.818934610390462 r[1,4] + 1.529705854077836 r[1,5]
   + 4.609772228646444 r[1,7] + 2.901723625709382 r[2,0]
   + 4.830113870293329 r[2,1] + 3.50142828000232 r[2,3]
   + 4.272001872658765 r[2,4] + 3.383784863137727 r[2,5]
   + 3.330165161069343 r[2,6] + 4.534313619501854 r[3,0]
   + 4.396589587396122 r[3,1] + 3.50142828000232 r[3,2]
   + 1.431782106327635 r[3,4] + 3.138470965295043 r[3,5]
   + 6.264982043070834 r[3,6] + 3.701351104664349 r[3,7]
   + 4.346262762420146 r[4,0] + 5.818934610390462 r[4,1]
   + 4.272001872658765 r[4,2] + 1.431782106327635 r[4,3]
   + 4.565084884205331 r[4,5] + 6.432728814430156 r[4,6]
   + 4.272001872658765 r[4,7] + 5.977457653551383 r[5,0]
   + 1.529705854077836 r[5,1] + 3.383784863137727 r[5,2]
   + 3.138470965295043 r[5,3] + 4.565084884205331 r[5,4]
   + 6.700746227100382 r[5,6] + 4.517742799230607 r[5,7]
   + 2.334523505985751 r[6,0] + 3.330165161069343 r[6,2]
   + 6.264982043070834 r[6,3] + 6.432728814430156 r[6,4]
   + 6.700746227100382 r[6,5] + 4.609772228646444 r[7,1]
   + 3.701351104664349 r[7,3] + 4.272001872658765 r[7,4]
   + 4.517742799230607 r[7,5]
Subject To
 flow_cons_inner_nodes[0]: - y[0,2] - y[0,3] - y[0,4] - y[0,5] - y[0,6]
   + y[2,0] + y[3,0] + y[4,0] + y[5,0] + y[6,0] = 0
 flow_cons_inner_nodes[1]: - y[1,2] - y[1,3] - y[1,4] - y[1,5] - y[1,7]
   + y[2,1] + y[3,1] + y[4,1] + y[5,1] + y[7,1] = 0
 flow_cons_inner_nodes[2]: y[0,2] + y[1,2] - y[2,0] - y[2,1] - y[2,3]
   - y[2,4] - y[2,5] - y[2,6] + y[3,2] + y[4,2] + y[5,2] + y[6,2] = 0
 flow_cons_inner_nodes[3]: y[0,3] + y[1,3] + y[2,3] - y[3,0] - y[3,1]
   - y[3,2] - y[3,4] - y[3,5] - y[3,6] - y[3,7] + y[4,3] + y[5,3] + y[6,3]
   + y[7,3] = 0
 flow_cons_inner_nodes[4]: y[0,4] + y[1,4] + y[2,4] + y[3,4] - y[4,0]
   - y[4,1] - y[4,2] - y[4,3] - y[4,5] - y[4,6] - y[4,7] + y[5,4] + y[6,4]
   + y[7,4] = 0
 flow_cons_inner_nodes[5]: y[0,5] + y[1,5] + y[2,5] + y[3,5] + y[4,5]
   - y[5,0] - y[5,1] - y[5,2] - y[5,3] - y[5,4] - y[5,6] - y[5,7] + y[6,5]
   + y[7,5] = 0
 flow_cons_source: - y[0,6] - y[2,6] - y[3,6] - y[4,6] - y[5,6] + y[6,0]
   + y[6,2] + y[6,3] + y[6,4] + y[6,5] = 1
 flow_cons_target: y[1,7] + y[3,7] + y[4,7] + y[5,7] - y[7,1] - y[7,3]
   - y[7,4] - y[7,5] = 1
 primal_lower: 1.065918768738341 x[0,2] + 3.460871415774136 x[0,3]
   + 4.028479442916792 x[0,4] + 0.8586416833379725 x[0,5]
   + 3.754395701309114 x[0,6] + 4.034118583801131 x[1,2]
   + 0.5755685434347306 x[1,3] + 1.436762509615091 x[1,4]
   + 1.623373212148705 x[1,5] + 1.727665975323288 x[1,7]
   + 3.498937191492042 x[2,0] + 3.327273641039235 x[2,1]
   + 2.99463188901638 x[2,3] + 3.059861737501016 x[2,4]
   + 3.626830417357787 x[2,5] + 1.223270572093752 x[2,6]
   + 0.8981623171939068 x[3,0] + 3.288184718634384 x[3,1]
   + 1.876544946269442 x[3,2] + 3.052737885325063 x[3,4]
   + 3.700336757223912 x[3,5] + 0.7058593186518343 x[3,6]
   + 0.0984349418817625 x[3,7] + 1.090320756877933 x[4,0]
   + 3.96123092919707 x[4,1] + 3.703260553355539 x[4,2]
   + 2.476542730884788 x[4,3] + 2.460894624700028 x[4,5]
   + 0.1326752732291926 x[4,6] + 0.5696389556179245 x[4,7]
   + 2.122045189001913 x[5,0] + 1.666506344965587 x[5,1]
   + 0.2323934542405753 x[5,2] + 0.7606327707566679 x[5,3]
   + 1.262872823141306 x[5,4] + 0.0894947995804335 x[5,6]
   + 1.71247862723935 x[5,7] + 3.635852159920246 x[6,0]
   + 3.310790189349395 x[6,2] + 2.076660232210334 x[6,3]
   + 1.011520301196773 x[6,4] + 2.382126420992354 x[6,5]
   + 0.1833985207485881 x[7,1] + 1.00119271084317 x[7,3]
   + 0.6074382833987494 x[7,4] + 0.2188337646678433 x[7,5] + 83 u[0,2]
   + 19 u[0,3] + 69 u[0,4] + 22 u[0,5] + 23 u[0,6] + 25 u[1,2] + 68 u[1,3]
   + 75 u[1,4] + 76 u[1,5] + 69 u[1,7] + 91 u[2,0] + 82 u[2,1] + 47 u[2,3]
   + 27 u[2,4] + 88 u[2,5] + 80 u[2,6] + 4 u[3,0] + 15 u[3,1] + 56 u[3,2]
   + 37 u[3,4] + 84 u[3,5] + 23 u[3,6] + 47 u[3,7] + 98 u[4,0] + 16 u[4,1]
   + 35 u[4,2] + 5 u[4,3] + 31 u[4,5] + 61 u[4,6] + 62 u[4,7] + 93 u[5,0]
   + 7 u[5,1] + 39 u[5,2] + 60 u[5,3] + 43 u[5,4] + 60 u[5,6] + 11 u[5,7]
   + 32 u[6,0] + 11 u[6,2] + 18 u[6,3] + 58 u[6,4] + 5 u[6,5] + 21 u[7,1]
   + 13 u[7,3] + 38 u[7,4] + 54 u[7,5] <= 189
 mccormick1[0,2]: - u[0,2] + r[0,2] <= 0
 mccormick1[0,3]: - u[0,3] + r[0,3] <= 0
 mccormick1[0,4]: - u[0,4] + r[0,4] <= 0
 mccormick1[0,5]: - u[0,5] + r[0,5] <= 0
 mccormick1[0,6]: - u[0,6] + r[0,6] <= 0
 mccormick1[1,2]: - u[1,2] + r[1,2] <= 0
 mccormick1[1,3]: - u[1,3] + r[1,3] <= 0
 mccormick1[1,4]: - u[1,4] + r[1,4] <= 0
 mccormick1[1,5]: - u[1,5] + r[1,5] <= 0
 mccormick1[1,7]: - u[1,7] + r[1,7] <= 0
 mccormick1[2,0]: - u[2,0] + r[2,0] <= 0
 mccormick1[2,1]: - u[2,1] + r[2,1] <= 0
 mccormick1[2,3]: - u[2,3] + r[2,3] <= 0
 mccormick1[2,4]: - u[2,4] + r[2,4] <= 0
 mccormick1[2,5]: - u[2,5] + r[2,5] <= 0
 mccormick1[2,6]: - u[2,6] + r[2,6] <= 0
 mccormick1[3,0]: - u[3,0] + r[3,0] <= 0
 mccormick1[3,1]: - u[3,1] + r[3,1] <= 0
 mccormick1[3,2]: - u[3,2] + r[3,2] <= 0
 mccormick1[3,4]: - u[3,4] + r[3,4] <= 0
 mccormick1[3,5]: - u[3,5] + r[3,5] <= 0
 mccormick1[3,6]: - u[3,6] + r[3,6] <= 0
 mccormick1[3,7]: - u[3,7] + r[3,7] <= 0
 mccormick1[4,0]: - u[4,0] + r[4,0] <= 0
 mccormick1[4,1]: - u[4,1] + r[4,1] <= 0
 mccormick1[4,2]: - u[4,2] + r[4,2] <= 0
 mccormick1[4,3]: - u[4,3] + r[4,3] <= 0
 mccormick1[4,5]: - u[4,5] + r[4,5] <= 0
 mccormick1[4,6]: - u[4,6] + r[4,6] <= 0
 mccormick1[4,7]: - u[4,7] + r[4,7] <= 0
 mccormick1[5,0]: - u[5,0] + r[5,0] <= 0
 mccormick1[5,1]: - u[5,1] + r[5,1] <= 0
 mccormick1[5,2]: - u[5,2] + r[5,2] <= 0
 mccormick1[5,3]: - u[5,3] + r[5,3] <= 0
 mccormick1[5,4]: - u[5,4] + r[5,4] <= 0
 mccormick1[5,6]: - u[5,6] + r[5,6] <= 0
 mccormick1[5,7]: - u[5,7] + r[5,7] <= 0
 mccormick1[6,0]: - u[6,0] + r[6,0] <= 0
 mccormick1[6,2]: - u[6,2] + r[6,2] <= 0
 mccormick1[6,3]: - u[6,3] + r[6,3] <= 0
 mccormick1[6,4]: - u[6,4] + r[6,4] <= 0
 mccormick1[6,5]: - u[6,5] + r[6,5] <= 0
 mccormick1[7,1]: - u[7,1] + r[7,1] <= 0
 mccormick1[7,3]: - u[7,3] + r[7,3] <= 0
 mccormick1[7,4]: - u[7,4] + r[7,4] <= 0
 mccormick1[7,5]: - u[7,5] + r[7,5] <= 0
 mccormick2[0,2]: - y[0,2] + r[0,2] <= 0
 mccormick2[0,3]: - y[0,3] + r[0,3] <= 0
 mccormick2[0,4]: - y[0,4] + r[0,4] <= 0
 mccormick2[0,5]: - y[0,5] + r[0,5] <= 0
 mccormick2[0,6]: - y[0,6] + r[0,6] <= 0
 mccormick2[1,2]: - y[1,2] + r[1,2] <= 0
 mccormick2[1,3]: - y[1,3] + r[1,3] <= 0
 mccormick2[1,4]: - y[1,4] + r[1,4] <= 0
 mccormick2[1,5]: - y[1,5] + r[1,5] <= 0
 mccormick2[1,7]: - y[1,7] + r[1,7] <= 0
 mccormick2[2,0]: - y[2,0] + r[2,0] <= 0
 mccormick2[2,1]: - y[2,1] + r[2,1] <= 0
 mccormick2[2,3]: - y[2,3] + r[2,3] <= 0
 mccormick2[2,4]: - y[2,4] + r[2,4] <= 0
 mccormick2[2,5]: - y[2,5] + r[2,5] <= 0
 mccormick2[2,6]: - y[2,6] + r[2,6] <= 0
 mccormick2[3,0]: - y[3,0] + r[3,0] <= 0
 mccormick2[3,1]: - y[3,1] + r[3,1] <= 0
 mccormick2[3,2]: - y[3,2] + r[3,2] <= 0
 mccormick2[3,4]: - y[3,4] + r[3,4] <= 0
 mccormick2[3,5]: - y[3,5] + r[3,5] <= 0
 mccormick2[3,6]: - y[3,6] + r[3,6] <= 0
 mccormick2[3,7]: - y[3,7] + r[3,7] <= 0
 mccormick2[4,0]: - y[4,0] + r[4,0] <= 0
 mccormick2[4,1]: - y[4,1] + r[4,1] <= 0
 mccormick2[4,2]: - y[4,2] + r[4,2] <= 0
 mccormick2[4,3]: - y[4,3] + r[4,3] <= 0
 mccormick2[4,5]: - y[4,5] + r[4,5] <= 0
 mccormick2[4,6]: - y[4,6] + r[4,6] <= 0
 mccormick2[4,7]: - y[4,7] + r[4,7] <= 0
 mccormick2[5,0]: - y[5,0] + r[5,0] <= 0
 mccormick2[5,1]: - y[5,1] + r[5,1] <= 0
 mccormick2[5,2]: - y[5,2] + r[5,2] <= 0
 mccormick2[5,3]: - y[5,3] + r[5,3] <= 0
 mccormick2[5,4]: - y[5,4] + r[5,4] <= 0
 mccormick2[5,6]: - y[5,6] + r[5,6] <= 0
 mccormick2[5,7]: - y[5,7] + r[5,7] <= 0
 mccormick2[6,0]: - y[6,0] + r[6,0] <= 0
 mccormick2[6,2]: - y[6,2] + r[6,2] <= 0
 mccormick2[6,3]: - y[6,3] + r[6,3] <= 0
 mccormick2[6,4]: - y[6,4] + r[6,4] <= 0
 mccormick2[6,5]: - y[6,5] + r[6,5] <= 0
 mccormick2[7,1]: - y[7,1] + r[7,1] <= 0
 mccormick2[7,3]: - y[7,3] + r[7,3] <= 0
 mccormick2[7,4]: - y[7,4] + r[7,4] <= 0
 mccormick2[7,5]: - y[7,5] + r[7,5] <= 0
 mccormick3[0,2]: - y[0,2] - u[0,2] + r[0,2] >= -1
 mccormick3[0,3]: - y[0,3] - u[0,3] + r[0,3] >= -1
 mccormick3[0,4]: - y[0,4] - u[0,4] + r[0,4] >= -1
 mccormick3[0,5]: - y[0,5] - u[0,5] + r[0,5] >= -1
 mccormick3[0,6]: - y[0,6] - u[0,6] + r[0,6] >= -1
 mccormick3[1,2]: - y[1,2] - u[1,2] + r[1,2] >= -1
 mccormick3[1,3]: - y[1,3] - u[1,3] + r[1,3] >= -1
 mccormick3[1,4]: - y[1,4] - u[1,4] + r[1,4] >= -1
 mccormick3[1,5]: - y[1,5] - u[1,5] + r[1,5] >= -1
 mccormick3[1,7]: - y[1,7] - u[1,7] + r[1,7] >= -1
 mccormick3[2,0]: - y[2,0] - u[2,0] + r[2,0] >= -1
 mccormick3[2,1]: - y[2,1] - u[2,1] + r[2,1] >= -1
 mccormick3[2,3]: - y[2,3] - u[2,3] + r[2,3] >= -1
 mccormick3[2,4]: - y[2,4] - u[2,4] + r[2,4] >= -1
 mccormick3[2,5]: - y[2,5] - u[2,5] + r[2,5] >= -1
 mccormick3[2,6]: - y[2,6] - u[2,6] + r[2,6] >= -1
 mccormick3[3,0]: - y[3,0] - u[3,0] + r[3,0] >= -1
 mccormick3[3,1]: - y[3,1] - u[3,1] + r[3,1] >= -1
 mccormick3[3,2]: - y[3,2] - u[3,2] + r[3,2] >= -1
 mccormick3[3,4]: - y[3,4] - u[3,4] + r[3,4] >= -1
 mccormick3[3,5]: - y[3,5] - u[3,5] + r[3,5] >= -1
 mccormick3[3,6]: - y[3,6] - u[3,6] + r[3,6] >= -1
 mccormick3[3,7]: - y[3,7] - u[3,7] + r[3,7] >= -1
 mccormick3[4,0]: - y[4,0] - u[4,0] + r[4,0] >= -1
 mccormick3[4,1]: - y[4,1] - u[4,1] + r[4,1] >= -1
 mccormick3[4,2]: - y[4,2] - u[4,2] + r[4,2] >= -1
 mccormick3[4,3]: - y[4,3] - u[4,3] + r[4,3] >= -1
 mccormick3[4,5]: - y[4,5] - u[4,5] + r[4,5] >= -1
 mccormick3[4,6]: - y[4,6] - u[4,6] + r[4,6] >= -1
 mccormick3[4,7]: - y[4,7] - u[4,7] + r[4,7] >= -1
 mccormick3[5,0]: - y[5,0] - u[5,0] + r[5,0] >= -1
 mccormick3[5,1]: - y[5,1] - u[5,1] + r[5,1] >= -1
 mccormick3[5,2]: - y[5,2] - u[5,2] + r[5,2] >= -1
 mccormick3[5,3]: - y[5,3] - u[5,3] + r[5,3] >= -1
 mccormick3[5,4]: - y[5,4] - u[5,4] + r[5,4] >= -1
 mccormick3[5,6]: - y[5,6] - u[5,6] + r[5,6] >= -1
 mccormick3[5,7]: - y[5,7] - u[5,7] + r[5,7] >= -1
 mccormick3[6,0]: - y[6,0] - u[6,0] + r[6,0] >= -1
 mccormick3[6,2]: - y[6,2] - u[6,2] + r[6,2] >= -1
 mccormick3[6,3]: - y[6,3] - u[6,3] + r[6,3] >= -1
 mccormick3[6,4]: - y[6,4] - u[6,4] + r[6,4] >= -1
 mccormick3[6,5]: - y[6,5] - u[6,5] + r[6,5] >= -1
 mccormick3[7,1]: - y[7,1] - u[7,1] + r[7,1] >= -1
 mccormick3[7,3]: - y[7,3] - u[7,3] + r[7,3] >= -1
 mccormick3[7,4]: - y[7,4] - u[7,4] + r[7,4] >= -1
 mccormick3[7,5]: - y[7,5] - u[7,5] + r[7,5] >= -1
Bounds
Binaries
 y[0,2] y[0,3] y[0,4] y[0,5] y[0,6] y[1,2] y[1,3] y[1,4] y[1,5] y[1,7]
 y[2,0] y[2,1] y[2,3] y[2,4] y[2,5] y[2,6] y[3,0] y[3,1] y[3,2] y[3,4]
 y[3,5] y[3,6] y[3,7] y[4,0] y[4,1] y[4,2] y[4,3] y[4,5] y[4,6] y[4,7]
 y[5,0] y[5,1] y[5,2] y[5,3] y[5,4] y[5,6] y[5,7] y[6,0] y[6,2] y[6,3]
 y[6,4] y[6,5] y[7,1] y[7,3] y[7,4] y[7,5] x[0,2] x[0,3] x[0,4] x[0,5]
 x[0,6] x[1,2] x[1,3] x[1,4] x[1,5] x[1,7] x[2,0] x[2,1] x[2,3] x[2,4]
 x[2,5] x[2,6] x[3,0] x[3,1] x[3,2] x[3,4] x[3,5] x[3,6] x[3,7] x[4,0]
 x[4,1] x[4,2] x[4,3] x[4,5] x[4,6] x[4,7] x[5,0] x[5,1] x[5,2] x[5,3]
 x[5,4] x[5,6] x[5,7] x[6,0] x[6,2] x[6,3] x[6,4] x[6,5] x[7,1] x[7,3]
 x[7,4] x[7,5] u[0,2] u[0,3] u[0,4] u[0,5] u[0,6] u[1,2] u[1,3] u[1,4]
 u[1,5] u[1,7] u[2,0] u[2,1] u[2,3] u[2,4] u[2,5] u[2,6] u[3,0] u[3,1]
 u[3,2] u[3,4] u[3,5] u[3,6] u[3,7] u[4,0] u[4,1] u[4,2] u[4,3] u[4,5]
 u[4,6] u[4,7] u[5,0] u[5,1] u[5,2] u[5,3] u[5,4] u[5,6] u[5,7] u[6,0]
 u[6,2] u[6,3] u[6,4] u[6,5] u[7,1] u[7,3] u[7,4] u[7,5] r[0,2] r[0,3]
 r[0,4] r[0,5] r[0,6] r[1,2] r[1,3] r[1,4] r[1,5] r[1,7] r[2,0] r[2,1]
 r[2,3] r[2,4] r[2,5] r[2,6] r[3,0] r[3,1] r[3,2] r[3,4] r[3,5] r[3,6]
 r[3,7] r[4,0] r[4,1] r[4,2] r[4,3] r[4,5] r[4,6] r[4,7] r[5,0] r[5,1]
 r[5,2] r[5,3] r[5,4] r[5,6] r[5,7] r[6,0] r[6,2] r[6,3] r[6,4] r[6,5]
 r[7,1] r[7,3] r[7,4] r[7,5]
End
