instances/shortest_path/discrete_knapsack_uncertainty/nohadani_8_4.kp
71520
189

[1.0659187687383411 3.460871415774136 4.028479442916792 0.8586416833379725 3.754395701309114 4.034118583801131 0.5755685434347306 1.4367625096150907 1.6233732121487052 1.7276659753232881 3.498937191492042 3.327273641039235 2.99463188901638 3.0598617375010164 3.6268304173577874 1.2232705720937516 0.8981623171939068 3.288184718634384 1.876544946269442 3.052737885325063 3.7003367572239116 0.7058593186518343 0.09843494188176254 1.0903207568779327 3.96123092919707 3.703260553355539 2.4765427308847885 2.460894624700028 0.1326752732291926 0.5696389556179245 2.1220451890019127 1.6665063449655868 0.23239345424057525 0.7606327707566679 1.2628728231413064 0.08949479958043345 1.7124786272393495 3.6358521599202462 3.310790189349395 2.0766602322103336 1.0115203011967726 2.382126420992354 0.18339852074858815 1.00119271084317 0.6074382833987494 0.21883376466784332]

[83 19 69 22 23 25 68 75 76 69 91 82 47 27 88 80 4 15 56 37 84 23 47 98 16 35 5 31 61 62 93 7 39 60 43 60 11 32 11 18 58 5 21 13 38 54]
